% Generated FlatZinc statistics:
%%%mzn-stat: paths=0
%%%mzn-stat: flatBoolVars=76
%%%mzn-stat: flatIntVars=267
%%%mzn-stat: flatIntConstraints=164
%%%mzn-stat: evaluatedReifiedConstraints=76
%%%mzn-stat: method="maximize"
%%%mzn-stat: flatTime=0.0858667
%%%mzn-stat-end

Team = [1, 2, 3, 4, 5, 6, 7, 8, 9, 10, 11, 12, 13, 14, 15, 16, 17, 18, 19, 20, 21, 22, 23, 24, 25, 26, 27, 28, 29, 30, 31, 1, 2, 3, 4, 5, 6, 7, 8, 9, 10, 11, 12, 13, 14, 15, 16, 17, 18, 19, 20, 21, 22, 23, 24, 25, 26, 27, 28, 29, 30, 31, 1, 2, 3, 4, 5, 6, 7, 8, 9, 10, 11, 12, 13, 14, 15, 16, 17, 18, 19, 20, 21, 22, 23, 24, 25, 26, 27, 28, 29, 30, 31, 1, 2, 3, 4, 5, 6, 7, 8, 9, 10, 11, 12, 13, 14, 15, 16, 17, 18, 19, 20, 21, 22, 23, 24, 25, 26, 27, 28, 29, 30, 31, 1, 2, 3, 4, 5, 6, 7, 8, 9, 10, 11, 12, 13, 14, 16, 31, 15, 17, 30, 23, 18, 20, 29, 28, 21, 22, 24, 26, 25, 19, 27];
objective = 6276;
----------
%%%mzn-stat: initTime=0.001797
%%%mzn-stat: solveTime=1199.91
%%%mzn-stat: solutions=62
%%%mzn-stat: variables=405
%%%mzn-stat: propagators=163
%%%mzn-stat: propagations=2500570604
%%%mzn-stat: nodes=182126614
%%%mzn-stat: failures=91062969
%%%mzn-stat: restarts=0
%%%mzn-stat: peakDepth=151
%%%mzn-stat-end
%%%mzn-stat: nSolutions=1
%%%mzn-stat-end
